%-----------------------------------------------------------------------------%
% Dual Arm Multi Capacity Multi Tool Scheduling / Routing
% YuMi + Workspace Configuration
% Auto Generated by python scrip, authored by Ludde Wessen 
%-----------------------------------------------------------------------------%


task_durations = [|27, 27, 27, 27, 27, 27, 51, 51, 51, 51, 51, 51, 30, 30,  5,  5,  5,  5,  5
                  |27, 27, 27, 27, 27, 27, 51, 51, 51, 51, 51, 51, 30, 30,  5,  5,  5,  5,  5
                  |];


TRAY_TASKS = 1..4;
CAMERA_TASKS = 13..14;
AIRGUN_TASKS = {  };
OUTPUT_TASKS = { 12 };


empty_gripper_tasks = 15..19;


gripper_pick_tasks_orders = [|1, 7, -1
|2, 8, -1
|5, 11, -1
|6, 12, -1
|];

suction_pick_tasks_orders = [|3, 13, 9, -1
|4, 14, 10, -1
|];

fixture_task_orders = [|7, 15, 9, 17, 5, -1, -1, -1
|10, 18, 8, 16, 11, 19, 6, -1
|];

